; benchmark generated from python API
(set-info :status unknown)
(declare-sort value 0)
 (declare-sort quorum 0)
 (declare-sort node 0)
 (declare-fun member (node quorum) Bool)
(declare-fun __voted (node) Bool)
(declare-fun __vote_msg (node node) Bool)
(declare-fun __votes (node node) Bool)
(declare-fun __decided (node value) Bool)
(declare-fun __leader (node) Bool)
(declare-fun __vote_request_msg (node node) Bool)
(assert
 (let (($x1182 (forall ((Q1 quorum) (Q2 quorum) )(exists ((N node) )(let (($x1187 (member N Q1)))
 (and $x1187 (member N Q2))))
 )
 ))
 (let (($x8023 (forall ((N0 node) (N1 node) )(let (($x897 (__voted N1)))
 (let (($x8053 (__vote_msg N1 N0)))
 (=> $x8053 $x897))))
 ))
 (let (($x8124 (forall ((N0 node) (N1 node) (N2 node) )(let (($x8013 (= N0 N1)))
 (let (($x8053 (__vote_msg N2 N1)))
 (let (($x7982 (and (__vote_msg N2 N0) $x8053)))
 (=> $x7982 $x8013)))))
 ))
 (let (($x8147 (forall ((N0 node) (N1 node) )(let (($x8053 (__vote_msg N1 N0)))
 (let (($x852 (__votes N0 N1)))
 (=> $x852 $x8053))))
 ))
 (let (($x8161 (forall ((V1 value) (V2 value) (N1 node) (N2 node) )(let (($x8156 (= V1 V2)))
 (let (($x8159 (and (__decided N1 V1) (__decided N2 V2))))
 (=> $x8159 $x8156))))
 ))
 (let (($x8190 (exists ((Q0 quorum) )(forall ((N0 node) (Q2 quorum) (N1 node) (N2 node) )(let (($x8173 (__votes N0 N2)))
 (let (($x8174 (__votes N0 N1)))
 (let (($x8175 (or $x8174 $x8173)))
 (let (($x1187 (member N2 Q2)))
 (let (($x8176 (__leader N0)))
 (let (($x8187 (and (or (= Q2 Q0) (member N1 Q0)) $x8176 $x1187)))
 (=> $x8187 $x8175))))))))
 )
 ))
 (let (($x8196 (forall ((N0 node) (V0 value) )(let (($x8194 (__leader N0)))
 (let (($x831 (__decided N0 V0)))
 (=> $x831 $x8194))))
 ))
 (let (($x8197 (and $x8196 $x8190 $x8161 $x8147 $x8124 $x8023)))
 (let (($x8198 (not $x8197)))
 (let (($x8203 (forall ((V1 value) (V023 node) )(let (($x1201 (__decided V023 V1)))
 (not $x1201)))
 ))
 (let (($x8208 (forall ((V022 node) )(let (($x904 (__leader V022)))
 (not $x904)))
 ))
 (let (($x8214 (forall ((V020 node) (V121 node) )(let (($x852 (__votes V020 V121)))
 (not $x852)))
 ))
 (let (($x8220 (forall ((V018 node) (V119 node) )(let (($x890 (__vote_msg V018 V119)))
 (not $x890)))
 ))
 (let (($x8225 (forall ((V017 node) )(let (($x897 (__voted V017)))
 (not $x897)))
 ))
 (let (($x8230 (forall ((V116 node) (V015 node) )(let (($x1119 (__vote_request_msg V015 V116)))
 (not $x1119)))
 ))
 (let (($x8231 (and $x8230 $x8225 $x8220 $x8214 $x8208 $x8203)))
 (and $x8231 $x8198 $x1182))))))))))))))))))
(check-sat)
